128
1000000
133887
208776
207036
42279
102124
46003
58170
177454
79535
248753
7521
122578
142498
132873
106502
59548
15772
73650
218771
38342
217175
13435
59436
25530
46096
217561
48701
18221
140431
182234
70115
120537
10650
79490
154547
223230
41817
156632
131943
181490
17715
139157
118912
238266
72622
1839
79711
121800
20003
193739
146266
236573
9166
188409
138227
1060
63761
20133
224726
163637
245709
243831
70049
27492
169290
160225
121573
32828
156871
149
131032
180703
65201
85936
190557
14555
56746
128620
111442
128853
117029
76904
77171
151233
191435
231159
51487
249218
37094
228817
223926
128022
55470
74471
247333
80651
24954
231763
221123
214353
174013
6804
178294
11647
135558
56993
60474
143848
246201
246696
201596
2201
35583
235556
34898
122137
151826
3127
174461
36540
150723
168456
236607
11301
211325
43090
63401
64304
